units metal

atom_style atomic
read_data water.data

neighbor 2.0 bin
neigh_modify one 5000

timestep 0.016

thermo 1
variable time_fs equal 1000*time
thermo_style custom v_time_fs temp pe ke etotal cpu
thermo_modify colname 1 "Time (fs)"
thermo_modify colname 2 "T (K)"
thermo_modify colname 3 "V (eV)"
thermo_modify colname 4 "K (eV)"
thermo_modify colname 5 "E (eV)"
thermo_modify colname 6 "CPU Time (s)"

velocity all create 300.0 12345 mom yes rot yes dist gaussian
fix flashmd all metatomic flashmd-16.pt types 8 1 device cpu

dump trajectory all custom 1 flashmd.lammpstrj id type element x y z
dump_modify trajectory sort id element O H

run 4
