si
&inputph
    amass(1)= 28.086,
    fildyn='dynq1',
    fildvscf='dvscf',
    outdir='./',
    alpha_mix(1)=0.2
    tr2_ph=1.0d-16,
    trans=.true., 
/
 0.0 0.0 0.0
