&inputpp
   outdir = 'out/'
   prefix = 'pb'
   seedname = 'ex3'
   write_amn = .true.
   write_mmn = .true.
/

